100 154700
10 65 42 18 58 76 53 29 45 3 35 12 50 88 23 36 7 70 87 17 80 93 16 21 61 2 48 28 41 49 24 97 85 64 26 20 46 92 38 66 73 84 30 96 40 99 47 100 69 51 62 9 89 60 4 82 56 98 67 72 27 63 5 32 14 77 94 43 52 68 39 75 13 25 81 34 22 59 86 8 44 83 95 79 57 54 74 31 19 15 78 37 11 71 55 1 90 91 33 6 
